Minimize
  obj: x0 + x1 + x2 + x3 + x4 + x5 + x6 + x7

Subject To
  c0: x0 + x1 + x4 + x7 = 122
  c1: x2 + x3 + x4 + x6 = 22
  c2: x0 + x1 + x2 + x3 + x6 = 137
  c3: x0 + x1 + x7 = 120
  c4: x0 + x1 + x2 + x3 + x4 + x6 = 139
  c5: x0 + x1 + x3 + x6 + x7 = 128
  c6: x0 + x1 + x2 + x3 + x4 + x5 + x7 = 159
  c7: x1 + x2 + x3 + x4 + x5 + x6 = 143

Bounds
  x0 >= 0
  x1 >= 0
  x2 >= 0
  x3 >= 0
  x4 >= 0
  x5 >= 0
  x6 >= 0
  x7 >= 0

Generals
  x0 x1 x2 x3 x4 x5 x6 x7

End
